proyfinal/src/viki/013/andrea/andrea-localstore/experimentInOfficeAgust.take6/worker_3/e8e337e7-4350-4194-bdcf-a1638f4c0cf5.als.cnf.out
Reading from standard input... Use '--help' for help.
============================[ Problem Statistics ]=============================
|                                                                             |
|  Number of variables:         87638                                         |
|  Number of clauses:          161767                                         |
|  Parse time:                   0.03 s                                       |
|                                                                             |
============================[ Search Statistics ]==============================
| Conflicts |          ORIGINAL         |          LEARNT          | Progress |
|           |    Vars  Clauses Literals |    Limit  Clauses Lit/Cl |          |
===============================================================================
|       100 |   63696   110011   274833 |    40337      100     31 | 27.319 % |
|       250 |   63696   110011   274833 |    44371      250     78 | 27.319 % |
|       475 |   63674   109919   274622 |    48808      474     96 | 27.344 % |
|       812 |   63674   109919   274622 |    53689      811     82 | 27.344 % |
|      1318 |   63673   109875   274532 |    59057     1316     70 | 27.345 % |
|      2077 |   63645   109764   274275 |    64963     2063     72 | 27.377 % |
|      3216 |   63618   109651   274016 |    71460     3201     66 | 27.408 % |
|      4924 |   53042    78390   197348 |    78606     4838     58 | 39.476 % |
|      7486 |   52979    78176   196850 |    86466     7393     61 | 39.548 % |
|     11330 |   52820    77448   195022 |    95113    10983     71 | 39.729 % |
|     17096 |   52654    76744   193370 |   104624    14934     77 | 39.919 % |
===============================================================================
restarts              : 70
conflicts             : 20370          (7134 /sec)
decisions             : 72347          (0.00 % random) (25339 /sec)
propagations          : 31212208       (10931703 /sec)
conflict literals     : 1553591        (43.44 % deleted)
Memory used           : 40.82 MB
CPU time              : 2.8552 s

INDETERMINATE
